\* Problem: Unknown *\

Maximize
 obj: + xp_0_0 + xp_1_0 + xp_1_1 + xp_2_0 + xp_2_1 + xp_3_0 + xp_3_1
 + xp_4_0 + xp_4_1 + xp_5_0 + xp_6_0 + xp_7_0 + xp_8_0 + xp_9_0 + xp_9_1
 + xp_10_0 + xp_11_0 + xp_11_1 + xp_12_0 + xp_12_1 + xp_13_0 + xp_13_1
 + xp_13_2 + xp_14_0 + xp_14_1 + xp_15_0 + xp_16_0 + xp_17_0 + xp_17_1
 + xp_18_0 + xp_18_1 + xp_18_2 + xp_18_3 + xp_19_0 + xp_19_1 + xp_20_0
 + xp_21_0 + xp_22_0 + xp_22_1 + xp_23_0 + xp_24_0 + xp_24_1 + xp_24_2
 + xp_24_3 + xp_25_0 + xp_26_0 + xp_26_1 + xp_26_2 + xp_27_0 + xp_28_0
 + xp_28_1 + xp_29_0 + xp_30_0 + xp_30_1 + xp_30_2 + xp_31_0 + xp_32_0
 + xp_32_1 + xp_33_0 + xp_34_0 + xp_34_1 + xp_35_0 + xp_36_0 + xp_37_0
 + xp_38_0 + xp_38_1 + xp_39_0 + xp_40_0 + xp_40_1 + xp_40_2 + xp_41_0
 + xp_41_1 + xp_42_0 + xp_42_1 + xp_43_0 + xp_44_0 + xp_45_0 + xp_45_1
 + xp_45_2 + xp_46_0 + xp_47_0 + xp_48_0 + xp_49_0 + xp_50_0 + xp_50_1
 + xp_51_0 + xp_52_0 + xp_53_0 + xp_53_1 + xp_54_0 + xp_55_0 + xp_56_0
 + xp_57_0 + xp_57_1 + xp_58_0 + xp_58_1 + xp_59_0 + xp_60_0 + xp_60_1
 + xp_61_0 + xp_61_1 + xp_62_0 + xp_63_0 + xp_63_1 + xp_64_0 + xp_65_0
 + xp_66_0 + xp_67_0 + xp_67_1 + xp_68_0 + xp_68_1 + xp_68_2 + xp_69_0
 + xp_70_0 + xp_71_0 + xp_72_0 + xp_73_0 + xp_74_0 + xp_75_0 + xp_76_0
 + xp_77_0 + xp_77_1 + xp_78_0 + xp_78_1 + xp_78_2 + xp_78_3 + xp_79_0
 + xp_79_1 + xp_79_2 + xp_80_0 + xp_80_1 + xp_81_0 + xp_81_1 + xp_82_0
 + xp_82_1 + xp_82_2 + xp_83_0 + xp_84_0 + xp_85_0 + xp_85_1 + xp_86_0
 + xp_87_0 + xp_88_0 + xp_88_1 + xp_89_0 + xp_90_0 + xp_90_1 + xp_90_2
 + xp_91_0 + xp_91_1 + xp_91_2 + xp_92_0 + xp_92_1 + xp_93_0 + xp_94_0
 + xp_95_0 + xp_95_1 + xp_95_2 + xp_96_0 + xp_96_1 + xp_97_0 + xp_98_0
 + xp_98_1 + xp_98_2 + xp_99_0 + xp_99_1 + xp_99_2 + xp_100_0 + xp_101_0
 + xp_102_0 + xp_103_0 + xp_104_0 + xp_105_0 + xp_106_0 + xp_106_1
 + xp_106_2 + xp_107_0 + xp_108_0 + xp_108_1 + xp_108_2 + xp_109_0
 + xp_109_1 + xp_110_0 + xp_111_0 + xp_111_1 + xp_112_0 + xp_112_1
 + xp_113_0 + xp_114_0 + xp_115_0 + xp_115_1 + xp_116_0 + xp_116_1
 + xp_117_0 + xp_118_0 + xp_119_0 + xp_119_1 + xp_119_2 + xp_120_0
 + xp_120_1 + xp_121_0 + xp_122_0 + xp_123_0 + xp_124_0 + xp_125_0
 + xp_125_1 + xp_126_0 + xp_126_1 + xp_126_2 + xp_127_0 + xp_127_1
 + xp_128_0 + xp_128_1 + xp_128_2 + xp_129_0 + xp_129_1 + xp_130_0
 + xp_131_0 + xp_131_1 + xp_131_2

Subject To
 r_1: + xp_128_2 + xp_128_1 + xp_122_0 + xp_121_0 + xp_108_1 + xp_107_0
 + xp_78_3 + xp_67_1 + xp_57_1 + xp_40_2 + xp_40_1 + xp_25_0 + xp_22_1
 + xp_18_3 + xp_18_2 + xp_18_1 + xp_16_0 + xp_13_2 + xp_13_1 + xp_4_1
 + xp_4_0 <= 39484.32760364
 r_2: + xp_131_2 + xp_131_0 + xp_127_0 + xp_126_1 + xp_120_0 + xp_93_0
 + xp_90_2 + xp_85_1 + xp_85_0 + xp_77_1 + xp_75_0 + xp_71_0 + xp_66_0
 + xp_65_0 + xp_61_1 + xp_55_0 + xp_52_0 + xp_48_0 + xp_42_1 + xp_38_1
 + xp_32_0 + xp_28_1 + xp_28_0 + xp_24_3 + xp_24_1 + xp_24_0 + xp_19_1
 + xp_19_0 + xp_12_1 + xp_1_1 <= 34931.0473350727
 r_3: + xp_114_0 + xp_106_2 + xp_95_1 + xp_91_1 + xp_79_1 + xp_76_0
 + xp_68_2 + xp_41_1 + xp_34_0 + xp_30_2 + xp_26_2 + xp_24_3
 <= 37771.7810331534
 r_4: + xp_117_0 + xp_95_2 + xp_95_0 + xp_91_2 + xp_91_0 + xp_88_1
 + xp_84_0 + xp_82_2 + xp_79_2 + xp_79_0 + xp_46_0 + xp_43_0 + xp_40_2
 + xp_40_1 + xp_40_0 + xp_34_1 <= 35917.2202350537
 r_5: + xp_130_0 + xp_99_0 + xp_88_1 + xp_82_2 + xp_7_0 + xp_2_0
 <= 37771.7810331534
 r_6: + xp_126_2 + xp_119_0 + xp_114_0 + xp_95_1 + xp_92_1 + xp_91_1
 + xp_83_0 + xp_82_1 + xp_81_0 + xp_79_1 + xp_70_0 + xp_68_2 + xp_68_1
 + xp_58_1 + xp_53_0 + xp_45_0 + xp_34_0 + xp_32_1 + xp_30_2 + xp_30_1
 + xp_18_1 <= 39177.1539206196
 r_7: + xp_119_2 + xp_119_1 + xp_112_1 + xp_111_1 + xp_104_0 + xp_88_0
 + xp_82_0 + xp_81_1 + xp_78_1 + xp_53_1 + xp_50_1 + xp_45_2 + xp_45_1
 + xp_44_0 + xp_27_0 + xp_18_3 + xp_18_2 + xp_18_0 + xp_4_1 + xp_3_1
 <= 35917.2202350537
 r_8: + xp_131_2 + xp_131_0 + xp_127_0 + xp_126_1 + xp_120_0 + xp_118_0
 + xp_103_0 + xp_90_2 + xp_77_1 + xp_71_0 + xp_61_1 + xp_55_0 + xp_42_1
 + xp_38_1 + xp_32_0 + xp_24_3 + xp_24_1 + xp_24_0 + xp_12_1 + xp_1_1
 <= 39484.32760364
 r_9: + xp_131_1 + xp_127_1 + xp_122_0 + xp_120_1 + xp_108_1 + xp_78_3
 + xp_77_0 + xp_67_1 + xp_57_1 + xp_42_0 + xp_33_0 + xp_32_1 + xp_24_2
 <= 39484.32760364
 r_10: + xp_112_1 + xp_111_1 + xp_106_0 + xp_99_0 + xp_98_0 + xp_88_1
 + xp_88_0 + xp_85_0 + xp_78_1 + xp_50_1 + xp_26_0 + xp_24_0 + xp_8_0
 + xp_7_0 + xp_4_1 + xp_3_1 + xp_2_0 <= 39177.1539206196
 r_11: + xp_119_0 + xp_112_0 + xp_111_0 + xp_95_1 + xp_91_1 + xp_82_1
 + xp_81_0 + xp_79_1 + xp_78_3 + xp_78_2 + xp_78_0 + xp_59_0 + xp_53_0
 + xp_50_0 + xp_49_0 + xp_45_0 + xp_34_0 + xp_18_1 + xp_4_0 + xp_3_0
 <= 36228.508042152
 r_12: + xp_129_1 + xp_128_2 + xp_128_0 + xp_123_0 + xp_119_1 + xp_117_0
 + xp_112_1 + xp_111_1 + xp_108_2 + xp_101_0 + xp_95_0 + xp_91_2
 + xp_82_2 + xp_82_0 + xp_81_1 + xp_80_1 + xp_79_2 + xp_78_1 + xp_78_0
 + xp_73_0 + xp_63_1 + xp_60_1 + xp_50_1 + xp_46_0 + xp_45_1 + xp_44_0
 + xp_40_2 + xp_40_0 + xp_18_2 + xp_18_0 + xp_17_1 + xp_15_0 + xp_14_0
 + xp_13_2 + xp_13_0 + xp_9_0 + xp_4_1 <= 35837.0814592704
 r_13: + xp_129_0 + xp_128_1 + xp_120_1 + xp_119_2 + xp_109_1 + xp_100_0
 + xp_96_1 + xp_95_2 + xp_91_0 + xp_90_0 + xp_80_0 + xp_79_0 + xp_68_0
 + xp_63_0 + xp_60_0 + xp_53_1 + xp_45_2 + xp_40_1 + xp_34_1 + xp_31_0
 + xp_30_0 + xp_18_3 + xp_17_0 + xp_13_1 + xp_9_1 <= 36228.508042152
 r_14: + xp_131_2 + xp_131_1 + xp_131_0 + xp_126_2 + xp_125_1 + xp_125_0
 + xp_124_0 + xp_115_1 + xp_115_0 + xp_106_2 + xp_106_1 + xp_99_2
 + xp_99_1 + xp_98_2 + xp_98_1 + xp_94_0 + xp_92_1 + xp_86_0 + xp_85_1
 + xp_77_1 + xp_77_0 + xp_68_2 + xp_68_1 + xp_65_0 + xp_58_1 + xp_56_0
 + xp_51_0 + xp_41_1 + xp_41_0 + xp_38_1 + xp_38_0 + xp_35_0 + xp_32_1
 + xp_30_2 + xp_30_1 + xp_26_2 + xp_26_1 + xp_24_3 + xp_24_2 + xp_24_1
 + xp_20_0 + xp_19_1 + xp_19_0 + xp_12_1 + xp_12_0 + xp_2_1 + xp_0_0
 <= 35917.2202350537
 r_15: + xp_131_1 + xp_131_0 + xp_126_2 + xp_125_0 + xp_124_0 + xp_120_1
 + xp_116_0 + xp_115_0 + xp_109_1 + xp_99_1 + xp_98_1 + xp_96_1
 + xp_94_0 + xp_92_1 + xp_90_0 + xp_89_0 + xp_86_0 + xp_85_1 + xp_77_1
 + xp_77_0 + xp_68_2 + xp_68_1 + xp_68_0 + xp_65_0 + xp_58_1 + xp_51_0
 + xp_42_1 + xp_42_0 + xp_38_1 + xp_38_0 + xp_36_0 + xp_32_1 + xp_28_0
 + xp_26_1 + xp_24_2 + xp_24_1 + xp_19_1 + xp_12_0 + xp_11_1 + xp_0_0
 <= 35837.0814592704
 r_16: + xp_128_0 + xp_123_0 + xp_108_2 + xp_108_0 + xp_78_2 + xp_78_1
 + xp_78_0 + xp_73_0 + xp_67_0 + xp_57_0 + xp_46_0 + xp_44_0 + xp_40_0
 + xp_22_0 + xp_18_0 + xp_13_0 + xp_6_0 <= 35837.0814592704
 r_17: + xp_129_1 + xp_128_2 + xp_126_0 + xp_119_1 + xp_112_1 + xp_111_1
 + xp_109_0 + xp_97_0 + xp_95_0 + xp_91_2 + xp_90_1 + xp_81_1 + xp_80_1
 + xp_79_2 + xp_63_1 + xp_62_0 + xp_61_0 + xp_60_1 + xp_47_0 + xp_45_1
 + xp_40_2 + xp_22_1 + xp_18_2 + xp_17_1 + xp_13_2 + xp_9_0 + xp_4_1
 + xp_1_0 <= 34931.0473350727
 r_18: + xp_126_1 + xp_126_0 + xp_106_0 + xp_99_0 + xp_98_0 + xp_92_0
 + xp_85_0 + xp_68_0 + xp_58_0 + xp_48_0 + xp_32_0 + xp_30_0 + xp_26_0
 + xp_24_0 + xp_5_0 + xp_2_0 <= 36228.508042152
 r_19: + xp_131_2 + xp_125_1 + xp_116_1 + xp_115_1 + xp_110_0 + xp_108_2
 + xp_106_2 + xp_106_1 + xp_99_2 + xp_98_2 + xp_78_0 + xp_56_0 + xp_28_1
 + xp_26_2 + xp_24_3 + xp_19_0 + xp_14_0 + xp_12_1 + xp_11_0 + xp_3_0
 + xp_2_1 <= 36228.508042152
 r_20: + xp_129_0 + xp_128_1 + xp_119_2 + xp_119_0 + xp_112_0 + xp_111_0
 + xp_108_1 + xp_108_0 + xp_107_0 + xp_95_2 + xp_95_1 + xp_91_1
 + xp_91_0 + xp_82_1 + xp_81_0 + xp_80_0 + xp_79_1 + xp_79_0 + xp_78_3
 + xp_78_2 + xp_69_0 + xp_64_0 + xp_63_0 + xp_60_0 + xp_50_0 + xp_49_0
 + xp_45_2 + xp_45_0 + xp_40_1 + xp_18_3 + xp_18_1 + xp_17_0 + xp_14_1
 + xp_13_1 + xp_10_0 + xp_9_1 + xp_4_0 <= 34931.0473350727
 r_21: + xp_113_0 + xp_106_2 + xp_99_2 + xp_99_1 + xp_86_0 + xp_77_1
 + xp_77_0 + xp_68_2 + xp_65_0 + xp_41_1 + xp_38_1 + xp_38_0 + xp_30_2
 + xp_26_2 + xp_24_3 + xp_20_0 + xp_2_1 + xp_0_0 <= 35917.2202350537
 r_22: + xp_126_2 + xp_124_0 + xp_106_1 + xp_105_0 + xp_98_2 + xp_98_1
 + xp_94_0 + xp_92_1 + xp_85_1 + xp_83_0 + xp_68_1 + xp_58_1 + xp_41_0
 + xp_32_1 + xp_30_1 + xp_26_1 + xp_24_2 + xp_24_1 <= 35917.2202350537
 r_23: + xp_128_2 + xp_128_1 + xp_128_0 + xp_119_2 + xp_119_1 + xp_117_0
 + xp_112_1 + xp_111_1 + xp_104_0 + xp_100_0 + xp_95_2 + xp_95_0
 + xp_91_2 + xp_91_0 + xp_84_0 + xp_82_2 + xp_82_0 + xp_81_1 + xp_80_1
 + xp_80_0 + xp_79_2 + xp_79_0 + xp_78_1 + xp_73_0 + xp_60_1 + xp_60_0
 + xp_53_1 + xp_50_1 + xp_46_0 + xp_45_2 + xp_45_1 + xp_44_0 + xp_40_2
 + xp_40_1 + xp_40_0 + xp_34_1 + xp_21_0 + xp_18_3 + xp_18_2 + xp_18_0
 + xp_15_0 + xp_9_1 + xp_9_0 + xp_4_1 + xp_3_1 <= 35917.2202350537
 r_24: + xp_128_0 + xp_126_1 + xp_103_0 + xp_90_2 + xp_61_1 + xp_40_0
 + xp_39_0 + xp_38_1 + xp_22_0 + xp_18_0 + xp_13_0 + xp_12_1 + xp_1_1
 <= 39484.32760364
 r_25: + xp_131_1 + xp_127_1 + xp_126_2 + xp_126_0 + xp_120_1 + xp_94_0
 + xp_90_1 + xp_90_0 + xp_89_0 + xp_77_0 + xp_74_0 + xp_61_0 + xp_42_0
 + xp_38_0 + xp_32_1 + xp_24_2 + xp_12_0 + xp_1_0 <= 35837.0814592704
 r_26: + xp_128_2 + xp_128_1 + xp_121_0 + xp_112_1 + xp_112_0 + xp_108_1
 + xp_107_0 + xp_81_1 + xp_81_0 + xp_79_2 + xp_79_1 + xp_79_0 + xp_78_3
 + xp_67_1 + xp_64_0 + xp_60_1 + xp_60_0 + xp_57_1 + xp_47_0 + xp_40_2
 + xp_40_1 + xp_37_0 + xp_29_0 + xp_25_0 + xp_22_1 + xp_18_3 + xp_18_2
 + xp_18_1 + xp_17_1 + xp_17_0 + xp_13_2 + xp_13_1 + xp_4_1 + xp_4_0
 <= 34931.0473350727
 r_27: + xp_131_0 + xp_127_0 + xp_125_0 + xp_116_0 + xp_115_0 + xp_108_0
 + xp_99_1 + xp_98_1 + xp_96_1 + xp_92_1 + xp_86_0 + xp_85_1 + xp_82_1
 + xp_78_2 + xp_77_1 + xp_72_0 + xp_67_0 + xp_65_0 + xp_58_1 + xp_57_0
 + xp_52_0 + xp_50_0 + xp_42_1 + xp_38_1 + xp_28_0 + xp_26_1 + xp_24_1
 + xp_23_0 + xp_19_1 + xp_14_1 + xp_11_1 <= 34931.0473350727
 r_28: + xp_131_2 + xp_126_1 + xp_126_0 + xp_125_1 + xp_120_0 + xp_116_1
 + xp_115_1 + xp_109_0 + xp_99_2 + xp_99_0 + xp_98_2 + xp_98_0 + xp_96_0
 + xp_92_0 + xp_90_2 + xp_90_1 + xp_85_0 + xp_75_0 + xp_58_0 + xp_54_0
 + xp_48_0 + xp_32_0 + xp_28_1 + xp_26_2 + xp_26_0 + xp_24_3 + xp_24_0
 + xp_19_0 + xp_12_1 + xp_11_0 <= 34931.0473350727
 r_29: + xp_129_1 + xp_129_0 + xp_95_2 + xp_95_1 + xp_95_0 + xp_93_0
 + xp_87_0 + xp_71_0 + xp_62_0 + xp_49_0 + xp_45_2 + xp_45_1 + xp_45_0
 + xp_10_0 + xp_9_1 + xp_9_0 + xp_1_1 + xp_1_0 <= 34931.0473350727
 r_30: + xp_125_1 + xp_125_0 + xp_121_0 + xp_102_0 + xp_99_2 + xp_99_1
 + xp_99_0 + xp_96_1 + xp_96_0 + xp_92_1 + xp_92_0 + xp_57_1 + xp_57_0
 + xp_37_0 + xp_26_2 + xp_26_1 + xp_26_0 + xp_23_0 + xp_11_1 + xp_11_0
 <= 34931.0473350727

Bounds
 0 <= xp_0_0 <= 223.192228671037
 0 <= xp_1_0 <= 103.61605699756
 0 <= xp_1_1 <= 69.0773713317064
 0 <= xp_2_0 <= 21.7581250855284
 0 <= xp_2_1 <= 87.0325003421138
 0 <= xp_3_0 <= 68.9776206149819
 0 <= xp_3_1 <= 103.466430922473
 0 <= xp_4_0 <= 596.958164237685
 0 <= xp_4_1 <= 149.239541059421
 0 <= xp_5_0 <= 1024.75158175023
 0 <= xp_6_0 <= 1694.95170974287
 0 <= xp_7_0 <= 603.74121297495
 0 <= xp_8_0 <= 1428.05619830692
 0 <= xp_9_0 <= 40.9476692154014
 0 <= xp_9_1 <= 61.4215038231021
 0 <= xp_10_0 <= 51.8703726967326
 0 <= xp_11_0 <= 15.7107378841065
 0 <= xp_11_1 <= 23.5661068261597
 0 <= xp_12_0 <= 1564.24086431502
 0 <= xp_12_1 <= 391.060216078756
 0 <= xp_13_0 <= 95.3367475094272
 0 <= xp_13_1 <= 95.3367475094272
 0 <= xp_13_2 <= 47.6683737547136
 0 <= xp_14_0 <= 83.2170354274022
 0 <= xp_14_1 <= 124.825553141103
 0 <= xp_15_0 <= 479.676259048871
 0 <= xp_16_0 <= 2498.06966777089
 0 <= xp_17_0 <= 224.788240138629
 0 <= xp_17_1 <= 56.1970600346571
 0 <= xp_18_0 <= 135.835538499568
 0 <= xp_18_1 <= 67.9177692497842
 0 <= xp_18_2 <= 67.9177692497842
 0 <= xp_18_3 <= 67.9177692497842
 0 <= xp_19_0 <= 200.274501503586
 0 <= xp_19_1 <= 801.098006014345
 0 <= xp_20_0 <= 121.321809216156
 0 <= xp_21_0 <= 259.663584473427
 0 <= xp_22_0 <= 466.209912291065
 0 <= xp_22_1 <= 699.314868436598
 0 <= xp_23_0 <= 49.189572184762
 0 <= xp_24_0 <= 64.4514318436083
 0 <= xp_24_1 <= 64.4514318436083
 0 <= xp_24_2 <= 128.902863687217
 0 <= xp_24_3 <= 64.4514318436083
 0 <= xp_25_0 <= 547.569090619474
 0 <= xp_26_0 <= 2.90523962460065
 0 <= xp_26_1 <= 8.71571887380194
 0 <= xp_26_2 <= 2.90523962460065
 0 <= xp_27_0 <= 319.701047101977
 0 <= xp_28_0 <= 505.23738020952
 0 <= xp_28_1 <= 126.30934505238
 0 <= xp_29_0 <= 2316.08695394665
 0 <= xp_30_0 <= 34.7007805805305
 0 <= xp_30_1 <= 104.102341741591
 0 <= xp_30_2 <= 34.7007805805305
 0 <= xp_31_0 <= 180.361764677461
 0 <= xp_32_0 <= 1278.06852687206
 0 <= xp_32_1 <= 852.045684581376
 0 <= xp_33_0 <= 7626.3787029726
 0 <= xp_34_0 <= 193.366764370416
 0 <= xp_34_1 <= 290.050146555623
 0 <= xp_35_0 <= 247.007712289008
 0 <= xp_36_0 <= 301.808262289522
 0 <= xp_37_0 <= 345.262168262626
 0 <= xp_38_0 <= 253.466571196918
 0 <= xp_38_1 <= 63.3666427992295
 0 <= xp_39_0 <= 1488.90413550886
 0 <= xp_40_0 <= 321.421746965474
 0 <= xp_40_1 <= 321.421746965474
 0 <= xp_40_2 <= 160.710873482737
 0 <= xp_41_0 <= 60.4988096934006
 0 <= xp_41_1 <= 15.1247024233501
 0 <= xp_42_0 <= 257.880540411977
 0 <= xp_42_1 <= 171.920360274651
 0 <= xp_43_0 <= 465.64881450949
 0 <= xp_44_0 <= 433.977961949466
 0 <= xp_45_0 <= 24.1646111265067
 0 <= xp_45_1 <= 8.05487037550222
 0 <= xp_45_2 <= 8.05487037550222
 0 <= xp_46_0 <= 1519.39044830778
 0 <= xp_47_0 <= 831.796289086305
 0 <= xp_48_0 <= 2750.56366947974
 0 <= xp_49_0 <= 83.3541926628984
 0 <= xp_50_0 <= 593.816016660864
 0 <= xp_50_1 <= 148.454004165216
 0 <= xp_51_0 <= 671.509356149647
 0 <= xp_52_0 <= 626.87091041544
 0 <= xp_53_0 <= 107.84299361876
 0 <= xp_53_1 <= 71.8953290791731
 0 <= xp_54_0 <= 3495.45214661984
 0 <= xp_55_0 <= 1121.63446536889
 0 <= xp_56_0 <= 90.6484638233764
 0 <= xp_57_0 <= 117.007590717822
 0 <= xp_57_1 <= 78.0050604785478
 0 <= xp_58_0 <= 2581.64829954641
 0 <= xp_58_1 <= 1721.09886636428
 0 <= xp_59_0 <= 10073.637849412
 0 <= xp_60_0 <= 513.217437547479
 0 <= xp_60_1 <= 128.30435938687
 0 <= xp_61_0 <= 1374.20328011529
 0 <= xp_61_1 <= 916.135520076858
 0 <= xp_62_0 <= 124.189642321985
 0 <= xp_63_0 <= 99.8005920828479
 0 <= xp_63_1 <= 24.950148020712
 0 <= xp_64_0 <= 941.08566809757
 0 <= xp_65_0 <= 494.389489765732
 0 <= xp_66_0 <= 1589.96408039035
 0 <= xp_67_0 <= 229.750838295672
 0 <= xp_67_1 <= 153.167225530448
 0 <= xp_68_0 <= 278.878066282481
 0 <= xp_68_1 <= 836.634198847443
 0 <= xp_68_2 <= 278.878066282481
 0 <= xp_69_0 <= 1626.49778039069
 0 <= xp_70_0 <= 597.818514169433
 0 <= xp_71_0 <= 67.0823569972166
 0 <= xp_72_0 <= 566.958136182796
 0 <= xp_73_0 <= 873.566901714684
 0 <= xp_74_0 <= 902.18288857502
 0 <= xp_75_0 <= 1669.51527697813
 0 <= xp_76_0 <= 1629.86436708014
 0 <= xp_77_0 <= 433.217362734441
 0 <= xp_77_1 <= 108.30434068361
 0 <= xp_78_0 <= 5298.870291961
 0 <= xp_78_1 <= 10597.740583922
 0 <= xp_78_2 <= 5298.870291961
 0 <= xp_78_3 <= 5298.870291961
 0 <= xp_79_0 <= 403.441773792182
 0 <= xp_79_1 <= 201.720886896091
 0 <= xp_79_2 <= 403.441773792182
 0 <= xp_80_0 <= 128.07992027424
 0 <= xp_80_1 <= 85.3866135161598
 0 <= xp_81_0 <= 148.204627373405
 0 <= xp_81_1 <= 98.8030849156031
 0 <= xp_82_0 <= 124.862959659875
 0 <= xp_82_1 <= 41.6209865532917
 0 <= xp_82_2 <= 41.6209865532917
 0 <= xp_83_0 <= 477.057802734853
 0 <= xp_84_0 <= 842.706523728046
 0 <= xp_85_0 <= 77.3940873386103
 0 <= xp_85_1 <= 309.576349354441
 0 <= xp_86_0 <= 162.3442914691
 0 <= xp_87_0 <= 133.790648806716
 0 <= xp_88_0 <= 322.144939661727
 0 <= xp_88_1 <= 80.5362349154316
 0 <= xp_89_0 <= 2103.11917373988
 0 <= xp_90_0 <= 12331.9192630168
 0 <= xp_90_1 <= 4110.63975433892
 0 <= xp_90_2 <= 4110.63975433892
 0 <= xp_91_0 <= 1030.89871966838
 0 <= xp_91_1 <= 515.449359834189
 0 <= xp_91_2 <= 1030.89871966838
 0 <= xp_92_0 <= 38.0050230720291
 0 <= xp_92_1 <= 25.3366820480194
 0 <= xp_93_0 <= 123.566200342457
 0 <= xp_94_0 <= 224.563801025998
 0 <= xp_95_0 <= 34.8628754952078
 0 <= xp_95_1 <= 11.6209584984026
 0 <= xp_95_2 <= 11.6209584984026
 0 <= xp_96_0 <= 87.481378567374
 0 <= xp_96_1 <= 21.8703446418435
 0 <= xp_97_0 <= 499.751090789673
 0 <= xp_98_0 <= 27.107257269879
 0 <= xp_98_1 <= 81.321771809637
 0 <= xp_98_2 <= 27.107257269879
 0 <= xp_99_0 <= 3.10474105804962
 0 <= xp_99_1 <= 9.31422317414885
 0 <= xp_99_2 <= 3.10474105804962
 0 <= xp_100_0 <= 476.870770140994
 0 <= xp_101_0 <= 236.907952220654
 0 <= xp_102_0 <= 71.0723856661961
 0 <= xp_103_0 <= 1365.08855837459
 0 <= xp_104_0 <= 125.062461093324
 0 <= xp_105_0 <= 1374.68956485932
 0 <= xp_106_0 <= 7.85536894205325
 0 <= xp_106_1 <= 23.5661068261597
 0 <= xp_106_2 <= 7.85536894205325
 0 <= xp_107_0 <= 426.434313997176
 0 <= xp_108_0 <= 161.01012563291
 0 <= xp_108_1 <= 483.030376898731
 0 <= xp_108_2 <= 161.01012563291
 0 <= xp_109_0 <= 549.950638981271
 0 <= xp_109_1 <= 366.633759320847
 0 <= xp_110_0 <= 126.30934505238
 0 <= xp_111_0 <= 2218.65544138601
 0 <= xp_111_1 <= 554.663860346503
 0 <= xp_112_0 <= 3550.9758893166
 0 <= xp_112_1 <= 887.743972329151
 0 <= xp_113_0 <= 403.366960754639
 0 <= xp_114_0 <= 2273.56821094284
 0 <= xp_115_0 <= 167.581204097136
 0 <= xp_115_1 <= 41.895301024284
 0 <= xp_116_0 <= 121.147245461888
 0 <= xp_116_1 <= 30.286811365472
 0 <= xp_117_0 <= 1842.58277049511
 0 <= xp_118_0 <= 2991.27461777551
 0 <= xp_119_0 <= 23.815483617971
 0 <= xp_119_1 <= 11.9077418089855
 0 <= xp_119_2 <= 23.815483617971
 0 <= xp_120_0 <= 1645.78707523729
 0 <= xp_120_1 <= 411.446768809322
 0 <= xp_121_0 <= 71.6334834477713
 0 <= xp_122_0 <= 2156.92221657315
 0 <= xp_123_0 <= 487.21990700116
 0 <= xp_124_0 <= 130.548750513171
 0 <= xp_125_0 <= 20.6982737203308
 0 <= xp_125_1 <= 5.1745684300827
 0 <= xp_126_0 <= 4812.85986240012
 0 <= xp_126_1 <= 9625.71972480024
 0 <= xp_126_2 <= 9625.71972480024
 0 <= xp_127_0 <= 328.167389183967
 0 <= xp_127_1 <= 218.778259455978
 0 <= xp_128_0 <= 77.0200221508935
 0 <= xp_128_1 <= 231.060066452681
 0 <= xp_128_2 <= 77.0200221508935
 0 <= xp_129_0 <= 27.8678564849032
 0 <= xp_129_1 <= 18.5785709899355
 0 <= xp_130_0 <= 382.731031232261
 0 <= xp_131_0 <= 291.197279797955
 0 <= xp_131_1 <= 291.197279797955
 0 <= xp_131_2 <= 145.598639898977

End
